3	37	1	8	29	100	0	0	0	0	0	0
800	1	0	0	0	0	0	0	0	0	0	0
800	1	0	0	0	0	0	0	0	0	0	0
800	1	0	0	0	0	0	0	0	0	0	0
100	1	0	79.69	3.39	1	0	0	0	0	0	0
100	1	0	79.69	3.39	1	0	0	0	0	0	0
100	1	0	79.69	3.39	1	0	0	0	0	0	0
100	1	0	79.69	3.39	1	0	0	0	0	0	0
100	1	0	79.69	3.39	1	0	0	0	0	0	0
100	1	0	79.69	3.39	1	0	0	0	0	0	0
100	1	0	79.69	3.39	1	0	0	0	0	0	0
100	1	0	79.69	3.39	1	0	0	0	0	0	0
100	1	0	79.69	3.39	1	0	0	0	0	0	0
100	1	0	79.69	3.39	1	0	0	0	0	0	0
100	1	0	79.69	3.39	1	0	0	0	0	0	0
100	1	0	79.69	3.39	1	0	0	0	0	0	0
100	1	0	79.69	3.39	1	0	0	0	0	0	0
100	1	0	79.69	3.39	1	0	0	0	0	0	0
100	1	0	79.69	3.39	1	0	0	0	0	0	0
100	1	0	79.69	3.39	1	0	0	0	0	0	0
100	1	0	79.69	3.39	1	0	0	0	0	0	0
100	1	0	79.69	3.39	1	0	0	0	0	0	0
100	1	0	79.69	3.39	1	0	0	0	0	0	0
100	1	0	79.69	3.39	1	0	0	0	0	0	0
100	1	0	79.69	3.39	1	0	0	0	0	0	0
100	1	0	79.69	3.39	1	0	0	0	0	0	0
100	1	0	79.69	3.39	1	0	0	0	0	0	0
100	1	0	79.69	3.39	1	0	0	0	0	0	0
100	1	0	79.69	3.39	1	0	0	0	0	0	0
100	1	0	79.69	3.39	1	0	0	0	0	0	0
100	1	0	79.69	3.39	1	0	0	0	0	0	0
100	1	0	79.69	3.39	1	0	0	0	0	0	0
100	1	0	79.69	3.39	1	0	0	0	0	0	0
100	1	0	79.69	3.39	1	0	0	0	0	0	0
100	1	0	79.69	3.39	1	0	0	0	0	0	0
100	1	0	79.69	3.39	1	0	0	0	0	0	0
100	1	0	79.69	3.39	1	0	0	0	0	0	0
100	1	0	79.69	3.39	1	0	0	0	0	0	0
100	1	0	79.69	3.39	1	0	0	0	0	0	0
100	1	0	79.69	3.39	1	0	0	0	0	0	0
100	1	0	79.69	3.39	1	0	0	0	0	0	0
50	150	0	0	0	0	1236	0	0	99999	0	0
25	25	0	0	0	0	1236	0	0	99999	0	0
50	25	0	0	0	0	1236	0	0	99999	0	0
75	25	0	0	0	0	1236	0	0	99999	0	0
25	50	0	0	0	0	1236	0	0	99999	0	0
75	50	0	0	0	0	1236	0	0	99999	0	0
25	75	0	0	0	0	1236	0	0	99999	0	0
50	75	0	0	0	0	1236	0	0	99999	0	0
75	75	0	0	0	0	1236	0	0	99999	0	0
25	25	0	0	0	0	1236	0	0	0	0	0
50	25	0	0	0	0	1236	0	0	0	0	0
75	25	0	0	0	0	1236	0	0	0	0	0
25	50	0	0	0	0	1236	0	0	0	0	0
75	50	0	0	0	0	1236	0	0	0	0	0
25	75	0	0	0	0	1236	0	0	0	0	0
50	75	0	0	0	0	1236	0	0	0	0	0
75	75	0	0	0	0	1236	0	0	0	0	0
40      50      0       0       0       0       1236    0       0       0       0       0
73      52      0       0       0       0       1236    0       0       0       0       0
90      55      0       0       0       0       1236    0       0       0       0       0
55      79      0       0       0       0       1236    0       0       0       0       0
69      89      0       0       0       0       1236    0       0       0       0       0
32      80      0       0       0       0       1236    0       0       0       0       0
39      96      0       0       0       0       1236    0       0       0       0       0
23      80      0       0       0       0       1236    0       0       0       0       0
4	83	0	0	0	0	1236	0	0	0	0	0
18	58	0	0	0	0	1236	0	0	0	0	0
1	56	0	0	0	0	1236	0	0	0	0	0
13	31	0	0	0	0	1236	0	0	0	0	0
-5	38	0	0	0	0	1236	0	0	0	0	0
26	37	0	0	0	0	1236	0	0	0	0	0
28	13	0	0	0	0	1236	0	0	0	0	0
39	31	0	0	0	0	1236	0	0	0	0	0
48	11	0	0	0	0	1236	0	0	0	0	0
59	17	0	0	0	0	1236	0	0	0	0	0
73	23	0	0	0	0	1236	0	0	0	0	0
74	32	0	0	0	0	1236	0	0	0	0	0
90	44	0	0	0	0	1236	0	0	0	0	0
45	68	10	7	3	120	307	90	0	0	0	0
45	70	30	19	11	571	683	90	0	0	0	0
42	66	10	6	4	879	1117	90	0	0	0	0
42	68	10	6	4	587	855	90	0	0	0	0
42	65	10	6	4	921	1231	90	0	0	0	0
40	69	20	12	8	736	890	90	0	0	0	0
40	66	20	12	8	814	998	90	0	0	0	0
38	68	20	11	9	994	1228	90	0	0	0	0
38	70	10	5	5	861	1226	90	0	0	0	0
35	66	10	5	5	804	1022	90	0	0	0	0
35	69	10	5	5	873	1139	90	0	0	0	0
25	85	20	6	14	255	351	90	0	0	0	0
22	75	30	9	21	1017	1216	90	0	0	0	0
22	85	10	3	7	295	497	90	0	0	0	0
20	80	40	10	30	855	881	90	0	0	0	0
20	85	40	9	31	415	561	90	0	0	0	0
18	75	20	5	15	611	935	90	0	0	0	0
15	75	20	4	16	669	691	90	0	0	0	0
15	80	10	2	8	512	658	90	0	0	0	0
30	50	10	6	4	111	269	90	0	0	0	0
30	52	20	12	8	112	291	90	0	0	0	0
28	52	20	11	9	126	280	90	0	0	0	0
28	55	10	5	5	114	247	90	0	0	0	0
25	50	10	5	5	116	338	90	0	0	0	0
25	52	40	19	21	151	441	90	0	0	0	0
25	55	10	5	5	677	941	90	0	0	0	0
23	52	10	4	6	364	412	90	0	0	0	0
23	55	20	8	12	438	712	90	0	0	0	0
20	50	10	4	6	258	344	90	0	0	0	0
20	55	10	4	6	435	529	90	0	0	0	0
10	35	20	6	14	552	634	90	0	0	0	0
10	40	30	8	22	293	517	90	0	0	0	0
8	40	40	8	32	319	675	90	0	0	0	0
8	45	20	4	16	287	353	90	0	0	0	0
5	35	10	1	9	665	917	90	0	0	0	0
5	45	10	1	9	296	530	90	0	0	0	0
2	40	20	1	19	661	729	90	0	0	0	0
0	40	30	0	30	518	688	90	0	0	0	0
0	45	20	0	20	403	613	90	0	0	0	0
35	30	10	9	1	207	337	90	0	0	0	0
35	32	10	9	1	120	282	90	0	0	0	0
33	32	20	19	1	326	404	90	0	0	0	0
33	35	10	9	1	839	1001	90	0	0	0	0
32	30	10	9	1	365	549	90	0	0	0	0
30	30	10	10	0	494	604	90	0	0	0	0
30	32	30	28	2	634	834	90	0	0	0	0
30	35	10	9	1	765	889	90	0	0	0	0
28	30	10	9	1	572	710	90	0	0	0	0
28	35	10	8	2	1044	1227	90	0	0	0	0
26	32	10	8	2	1004	1096	90	0	0	0	0
25	30	10	8	2	848	1066	90	0	0	0	0
25	35	10	7	3	1062	1225	90	0	0	0	0
44	5	20	2	18	428	722	90	0	0	0	0
42	10	40	10	30	870	1010	90	0	0	0	0
42	15	10	4	6	962	1108	90	0	0	0	0
40	5	30	4	26	402	560	90	0	0	0	0
40	15	40	15	25	921	1212	90	0	0	0	0
38	5	30	4	26	289	489	90	0	0	0	0
38	15	10	4	6	137	281	90	0	0	0	0
35	5	20	3	17	229	363	90	0	0	0	0
50	30	10	6	4	840	1224	90	0	0	0	0
50	35	20	14	6	220	380	90	0	0	0	0
50	40	50	40	10	116	365	90	0	0	0	0
48	30	10	6	4	305	485	90	0	0	0	0
48	40	10	8	2	114	383	90	0	0	0	0
47	35	10	7	3	1058	1230	90	0	0	0	0
47	40	10	9	1	114	407	90	0	0	0	0
45	30	10	7	3	378	598	90	0	0	0	0
45	35	10	8	2	462	704	90	0	0	0	0
95	30	30	9	21	464	572	90	0	0	0	0
95	35	20	7	13	522	704	90	0	0	0	0
53	30	10	6	4	992	1068	90	0	0	0	0
92	30	10	3	7	288	578	90	0	0	0	0
53	35	50	33	17	121	316	90	0	0	0	0
45	65	20	14	6	117	414	90	0	0	0	0
90	35	10	4	6	610	806	90	0	0	0	0
88	30	10	3	7	560	776	90	0	0	0	0
88	35	20	8	12	698	902	90	0	0	0	0
87	30	10	3	7	494	660	90	0	0	0	0
85	25	10	3	7	715	813	90	0	0	0	0
85	35	30	12	18	801	985	90	0	0	0	0
75	55	20	15	5	471	719	90	0	0	0	0
72	55	10	8	2	599	777	90	0	0	0	0
70	58	20	17	3	700	862	90	0	0	0	0
68	60	30	26	4	736	1012	90	0	0	0	0
66	55	10	8	2	192	424	90	0	0	0	0
65	55	20	17	3	141	293	90	0	0	0	0
65	60	30	28	2	890	1044	90	0	0	0	0
63	58	10	9	1	978	1142	90	0	0	0	0
60	55	10	9	1	122	311	90	0	0	0	0
60	60	10	10	0	834	1224	90	0	0	0	0
67	85	20	16	4	506	674	90	0	0	0	0
65	85	40	31	9	551	813	90	0	0	0	0
65	82	10	8	2	435	557	90	0	0	0	0
62	80	30	23	7	343	463	90	0	0	0	0
60	80	10	8	2	198	424	90	0	0	0	0
60	85	30	21	9	686	868	90	0	0	0	0
58	75	20	15	5	204	426	90	0	0	0	0
55	80	10	7	3	882	1052	90	0	0	0	0
55	85	20	13	7	817	927	90	0	0	0	0
